data/MCDM/NO_CORR/GEN_FROM_60/20_ITEMS_1000_GEN/K5020W02.KNP.mps
NAME          BLANK   
ROWS
 N  OBJROW
 L  R0000000
COLUMNS
    C0000000  OBJROW     -185.         R0000000  228.        
    C0000001  OBJROW     -63.          R0000000  233.        
    C0000002  OBJROW     -800.         R0000000  155.        
    C0000003  OBJROW     -587.         R0000000  328.        
    C0000004  OBJROW     -869.         R0000000  465.        
    C0000005  OBJROW     -27.          R0000000  513.        
    C0000006  OBJROW     -910.         R0000000  752.        
    C0000007  OBJROW     -290.         R0000000  328.        
    C0000008  OBJROW     -1.           R0000000  434.        
    C0000009  OBJROW     -938.         R0000000  712.        
    C0000010  OBJROW     -561.         R0000000  259.        
    C0000011  OBJROW     -387.         R0000000  194.        
    C0000012  OBJROW     -239.         R0000000  593.        
    C0000013  OBJROW     -317.         R0000000  538.        
    C0000014  OBJROW     -390.         R0000000  169.        
    C0000015  OBJROW     -727.         R0000000  631.        
    C0000016  OBJROW     -255.         R0000000  383.        
    C0000017  OBJROW     -682.         R0000000  202.        
    C0000018  OBJROW     -151.         R0000000  937.        
    C0000019  OBJROW     -936.         R0000000  824.        
RHS
    RHS       R0000000  14144.      
BOUNDS
 BV BOUND     C0000000  1.          
 BV BOUND     C0000001  1.          
 BV BOUND     C0000002  1.          
 BV BOUND     C0000003  1.          
 BV BOUND     C0000004  1.          
 BV BOUND     C0000005  1.          
 BV BOUND     C0000006  1.          
 BV BOUND     C0000007  1.          
 BV BOUND     C0000008  1.          
 BV BOUND     C0000009  1.          
 BV BOUND     C0000010  1.          
 BV BOUND     C0000011  1.          
 BV BOUND     C0000012  1.          
 BV BOUND     C0000013  1.          
 BV BOUND     C0000014  1.          
 BV BOUND     C0000015  1.          
 BV BOUND     C0000016  1.          
 BV BOUND     C0000017  1.          
 BV BOUND     C0000018  1.          
 BV BOUND     C0000019  1.          
ENDATA
