data/MCDM/NO_CORR/GEN_FROM_60/20_ITEMS_1000_GEN/K5020W02.KNP.txt
N 20
M 21
LC 20
LC 21
LC 22
LC 23
LC 24
LC 25
LC 26
LC 27
LC 28
LC 29
LC 30
LC 31
LC 32
LC 33
LC 34
LC 35
LC 36
LC 37
LC 38
LC 39
LR 1
LR 2
LR 3
LR 4
LR 5
LR 6
LR 7
LR 8
LR 9
LR 10
LR 11
LR 12
LR 13
LR 14
LR 15
LR 16
LR 17
LR 18
LR 19
LR 20
LR 21
LO -185
LO -63
LO -800
LO -587
LO -869
LO -27
LO -910
LO -290
LO -1
LO -938
LO -561
LO -387
LO -239
LO -317
LO -390
LO -727
LO -255
LO -682
LO -151
LO -936
OS 1
IC 426
IC 469
IC 797
IC 830
IC 719
IC 101
IC 606
IC 719
IC 148
IC 103
IC 172
IC 582
IC 699
IC 625
IC 866
IC 98
IC 931
IC 263
IC 242
IC 617
IB 5007
